# FENE beadspring benchmark
# 2019/01/15 Murashima @ Tohoku Univ

units		lj
atom_style	bond
special_bonds   fene

#read_data      data.chain.200
read_restart	res.chain.200

neighbor	0.4 bin
neigh_modify	every 1 delay 1

bond_style      fene
bond_coeff	1 30.0 1.5 1.0 1.0

pair_style	lj/cut 1.12246
pair_modify	shift yes
pair_coeff	1 1 1.0 1.0 1.12246

fix		1 all nve
fix		2 all langevin 1.0 1.0 2.0 904297

thermo          100
timestep	0.01

dump d1 all custom 100 dump.lammpstrj id mol x y z
dump d2 all custom 100 dump.u.lammpstrj id mol xu yu zu

run		10000





